48 47 49 56 62 65 69 55 54 46 45 53 64 68 75 78 82 81 77 74 89 98 100 101 105 112 123 130 118 114 121 124 125 131 129 122 117 111 110 120 116 119 115 128 127 126 109 108 113 107 106 102 99 93 92 94 87 88 83 80 79 76 71 66 70 67 63 72 86 85 84 95 96 103 104 97 91 90 73 61 60 59 58 57 52 51 50 34 35 22 36 37 38 23 39 40 41 42 44 43 24 11 4 10 9 8 3 2 1 12 5 13 18 25 26 27 28 29 19 17 16 15 14 6 7 20 30 31 32 21 33
